
n_res = 4;
rcap = [89, 75, 173, 166];
rtype = [1, 1, 2, 2];
n_tasks = 100;
modes =  [{1, 2, 3}, {4, 5, 6}, {7, 8, 9}, {10, 11, 12}, {13, 14, 15}, {16, 17, 18}, {19, 20, 21}, {22, 23, 24}, {25, 26, 27}, {28, 29, 30}, {31, 32, 33}, {34, 35, 36}, {37, 38, 39}, {40, 41, 42}, {43, 44, 45}, {46, 47, 48}, {49, 50, 51}, {52, 53, 54}, {55, 56, 57}, {58, 59, 60}, {61, 62, 63}, {64, 65, 66}, {67, 68, 69}, {70, 71, 72}, {73, 74, 75}, {76, 77, 78}, {79, 80, 81}, {82, 83, 84}, {85, 86, 87}, {88, 89, 90}, {91, 92, 93}, {94, 95, 96}, {97, 98, 99}, {100, 101, 102}, {103, 104, 105}, {106, 107, 108}, {109, 110, 111}, {112, 113, 114}, {115, 116, 117}, {118, 119, 120}, {121, 122, 123}, {124, 125, 126}, {127, 128, 129}, {130, 131, 132}, {133, 134, 135}, {136, 137, 138}, {139, 140, 141}, {142, 143, 144}, {145, 146, 147}, {148, 149, 150}, {151, 152, 153}, {154, 155, 156}, {157, 158, 159}, {160, 161, 162}, {163, 164, 165}, {166, 167, 168}, {169, 170, 171}, {172, 173, 174}, {175, 176, 177}, {178, 179, 180}, {181, 182, 183}, {184, 185, 186}, {187, 188, 189}, {190, 191, 192}, {193, 194, 195}, {196, 197, 198}, {199, 200, 201}, {202, 203, 204}, {205, 206, 207}, {208, 209, 210}, {211, 212, 213}, {214, 215, 216}, {217, 218, 219}, {220, 221, 222}, {223, 224, 225}, {226, 227, 228}, {229, 230, 231}, {232, 233, 234}, {235, 236, 237}, {238, 239, 240}, {241, 242, 243}, {244, 245, 246}, {247, 248, 249}, {250, 251, 252}, {253, 254, 255}, {256, 257, 258}, {259, 260, 261}, {262, 263, 264}, {265, 266, 267}, {268, 269, 270}, {271, 272, 273}, {274, 275, 276}, {277, 278, 279}, {280, 281, 282}, {283, 284, 285}, {286, 287, 288}, {289, 290, 291}, {292, 293, 294}, {295, 296, 297}, {298, 299, 300}];
succ =  [{100, 98, 97, 76, 74, 73, 66, 64, 62, 56, 54, 51, 50, 48, 47, 39, 38, 36, 32, 15}, {99, 97, 66, 56, 49, 41, 40, 38, 30, 29, 21}, {98, 73, 72, 69, 57, 56, 55, 47, 41, 36, 31, 16}, {99, 98, 97, 95, 94, 76, 72, 71, 70, 66, 61, 54, 50, 49, 43, 41, 40, 39, 36}, {100, 99, 97, 96, 95, 72, 70, 69, 65, 64, 63, 60, 59, 56, 55, 52, 35, 33}, {97, 76, 73, 71, 66, 64, 61, 56, 55, 54, 51, 49, 48, 38, 29}, {99, 98, 97, 96, 95, 94, 93, 91, 90, 89, 76, 75, 73, 72, 71, 70, 68, 61, 60, 59, 57, 50, 39}, {97, 96, 94, 93, 75, 74, 71, 63, 61, 60, 59, 58, 55, 54, 50, 44, 41, 39}, {99, 98, 97, 93, 73, 71, 63, 62, 61, 56, 50, 41, 38, 31}, {97, 96, 75, 68, 65, 64, 62, 61, 60, 52, 48, 47, 32}, {100, 99, 98, 97, 74, 71, 62, 60, 54, 41, 36}, {100, 98, 97, 95, 88, 74, 72, 68, 65, 60, 45, 32}, {97, 96, 95, 92, 84, 73, 69, 64, 61, 55, 31}, {98, 93, 91, 90, 84, 76, 70, 68, 67, 63, 62, 55, 50, 47}, {99, 95, 94, 93, 87, 85, 75, 72, 70, 68, 65, 43, 42}, {100, 97, 96, 93, 92, 90, 86, 84, 81, 75, 74, 71, 70, 62, 61, 54}, {99, 98, 97, 96, 95, 94, 92, 91, 90, 86, 85, 83, 80, 76, 67, 65, 55, 54}, {95, 92, 89, 87, 72, 71, 69, 68, 58, 56, 49, 42}, {96, 95, 94, 93, 92, 91, 90, 84, 83, 80, 76, 71, 69, 59, 55, 51}, {99, 94, 92, 91, 89, 88, 82, 74, 71, 68, 66, 65, 64, 60, 49}, {98, 96, 95, 94, 93, 92, 91, 90, 88, 86, 83, 82, 81, 79, 78, 75, 74, 71, 70, 65}, {96, 92, 86, 85, 83, 74, 72, 70, 69, 36}, {99, 98, 97, 93, 92, 91, 89, 88, 85, 84, 82, 76, 75, 73, 72, 68, 67, 60}, {96, 93, 89, 88, 86, 85, 84, 82, 81, 80, 79, 74, 73, 72, 68, 62, 61}, {98, 94, 92, 91, 90, 89, 88, 87, 86, 84, 83, 80, 79, 71, 69, 68, 59}, {100, 98, 97, 96, 94, 87, 83, 69, 67, 58, 41}, {100, 98, 97, 95, 93, 91, 90, 86, 84, 83, 81, 80, 73, 72, 68, 54}, {94, 92, 91, 80, 73, 71, 68, 65, 61, 59, 56}, {95, 93, 91, 87, 86, 84, 72, 69, 63, 59, 57}, {100, 94, 91, 90, 85, 84, 81, 70, 61, 60, 54}, {94, 91, 90, 88, 87, 85, 83, 82, 77, 70, 68, 67, 60}, {92, 91, 90, 87, 85, 84, 69, 59, 49}, {93, 91, 80, 71, 68, 67, 66, 54}, {95, 94, 88, 87, 86, 85, 84, 83, 82, 81, 80, 79, 77, 72}, {98, 92, 91, 90, 89, 86, 84, 83, 82, 77, 74, 67}, {91, 89, 88, 87, 84, 80, 79, 68, 59}, {99, 96, 93, 90, 89, 87, 84, 82, 79, 70, 68}, {94, 91, 90, 89, 88, 82, 81, 80, 79, 77, 68}, {92, 88, 87, 86, 85, 83, 79, 67, 65}, {96, 90, 83, 80, 75, 73, 59}, {92, 90, 86, 85, 81, 80, 79, 78, 65}, {96, 90, 84, 80, 79, 59}, {88, 84, 83, 81, 69, 60}, {95, 87, 85, 83, 82, 80, 77, 72}, {93, 90, 87, 85, 78, 70, 69}, {91, 87, 83, 71, 70, 67}, {88, 87, 86, 85, 81, 79, 78, 77}, {89, 86, 85, 83, 78, 70}, {93, 83, 80, 79, 78, 77}, {88, 83, 82, 78, 69}, {89, 88, 85, 79, 77}, {91, 84, 82, 80, 78}, {91, 89, 80, 69}, {89, 88, 82, 79}, {89, 87, 79, 78}, {86, 82, 79, 78}, {82, 79, 78, 77}, {90, 80, 79, 77}, {82, 77, 67}, {86, 79, 78}, {83, 78, 77}, {95, 94, 83}, {92, 89, 83}, {93, 86, 79}, {84, 77}, {81, 77}, {81}, {78}, {77}, {80}, {85}, {78}, {78}, {87}, {77}, {77}, {}, {}, {}, {}, {}, {}, {}, {}, {}, {}, {}, {}, {}, {}, {}, {}, {}, {}, {}, {}, {}, {}, {}, {}];
n_opt = 300;
dur = [3, 5, 5, 4, 5, 5, 1, 8, 10, 3, 6, 7, 2, 4, 7, 7, 8, 9, 3, 7, 10, 6, 6, 9, 1, 3, 4, 4, 5, 7, 3, 5, 6, 3, 8, 10, 4, 7, 10, 5, 7, 8, 5, 8, 8, 1, 6, 6, 1, 1, 4, 1, 2, 10, 1, 3, 9, 6, 9, 10, 7, 7, 8, 3, 6, 8, 2, 6, 10, 1, 6, 10, 4, 5, 5, 4, 10, 10, 4, 6, 7, 2, 9, 10, 5, 7, 10, 1, 10, 10, 4, 5, 10, 1, 9, 9, 2, 3, 9, 5, 7, 9, 3, 4, 9, 6, 7, 8, 2, 3, 10, 1, 3, 3, 1, 1, 4, 1, 5, 9, 4, 6, 10, 7, 7, 7, 2, 6, 7, 2, 4, 8, 1, 2, 3, 3, 5, 7, 1, 6, 8, 2, 6, 7, 7, 7, 8, 1, 5, 7, 2, 8, 9, 2, 6, 6, 2, 5, 8, 8, 9, 10, 2, 3, 8, 2, 4, 10, 3, 3, 5, 2, 5, 6, 3, 4, 10, 2, 9, 10, 3, 3, 5, 2, 5, 5, 1, 2, 10, 1, 8, 8, 3, 8, 10, 2, 3, 9, 2, 5, 9, 2, 4, 10, 2, 7, 10, 2, 2, 4, 4, 5, 6, 3, 6, 7, 1, 5, 10, 4, 5, 7, 3, 4, 8, 2, 3, 9, 2, 6, 9, 8, 8, 9, 4, 7, 9, 1, 4, 7, 2, 5, 10, 6, 8, 10, 5, 8, 10, 1, 2, 9, 1, 3, 8, 1, 6, 8, 2, 7, 8, 1, 2, 5, 2, 3, 4, 2, 6, 9, 6, 7, 8, 1, 5, 7, 1, 2, 4, 5, 7, 10, 6, 7, 9, 5, 6, 9, 1, 5, 10, 1, 4, 9, 1, 3, 8, 1, 9, 9];
rreq = [|0, 6, 0, 9, 4, 0, 4, 4, 4, 0, 0, 6, 0, 1, 1, 0, 0, 0, 10, 0, 8, 0, 7, 3, 6, 0, 0, 5, 0, 0, 5, 0, 0, 0, 0, 6, 6, 0, 0, 9, 5, 3, 0, 8, 0, 8, 0, 6, 0, 0, 3, 9, 0, 9, 0, 3, 3, 0, 7, 0, 5, 0, 3, 6, 5, 2, 8, 6, 2, 0, 0, 4, 0, 8, 5, 5, 4, 0, 0, 5, 0, 0, 7, 0, 9, 0, 0, 0, 3, 3, 0, 0, 0, 0, 4, 0, 10, 9, 0, 0, 9, 9, 0, 0, 0, 0, 0, 0, 0, 0, 3, 0, 0, 1, 0, 0, 0, 5, 4, 4, 5, 0, 3, 7, 0, 0, 5, 0, 0, 0, 7, 0, 7, 0, 0, 0, 6, 0, 0, 2, 2, 0, 5, 3, 8, 0, 0, 9, 4, 2, 9, 0, 8, 9, 9, 0, 5, 4, 0, 9, 0, 8, 0, 8, 8, 0, 5, 3, 0, 6, 0, 8, 7, 7, 0, 8, 0, 2, 1, 1, 0, 6, 6, 8, 0, 7, 0, 7, 0, 0, 4, 0, 0, 0, 0, 0, 7, 7, 0, 0, 6, 0, 9, 9, 0, 3, 0, 0, 8, 0, 0, 2, 2, 10, 7, 6, 0, 1, 1, 0, 5, 3, 6, 4, 0, 0, 5, 5, 7, 7, 0, 7, 5, 3, 8, 0, 5, 0, 0, 0, 7, 0, 0, 5, 0, 0, 0, 5, 5, 7, 5, 1, 0, 6, 4, 0, 0, 0, 0, 0, 3, 6, 0, 0, 7, 0, 5, 7, 0, 7, 0, 5, 0, 0, 9, 0, 7, 4, 0, 4, 0, 2, 6, 6, 6, 8, 0, 0, 0, 0, 0, 3, 3, 0, 0, 0, 3, 0, 8, 8
 |4, 0, 3, 0, 0, 4, 0, 0, 0, 6, 4, 0, 6, 0, 0, 8, 7, 4, 0, 6, 0, 9, 0, 0, 0, 5, 4, 0, 3, 2, 0, 5, 3, 8, 6, 0, 0, 7, 7, 0, 0, 0, 5, 0, 5, 0, 2, 0, 3, 1, 0, 0, 6, 0, 6, 0, 0, 7, 0, 2, 0, 7, 0, 0, 0, 0, 0, 0, 0, 3, 3, 0, 7, 0, 0, 0, 0, 3, 6, 0, 5, 4, 0, 4, 0, 8, 8, 6, 0, 0, 9, 8, 8, 9, 0, 8, 0, 0, 5, 7, 0, 0, 7, 5, 3, 10, 7, 6, 8, 6, 0, 6, 5, 0, 1, 1, 1, 0, 0, 0, 0, 5, 0, 0, 7, 1, 0, 9, 8, 5, 0, 1, 0, 9, 9, 9, 0, 9, 9, 0, 0, 9, 0, 0, 0, 4, 4, 0, 0, 0, 0, 7, 0, 0, 0, 6, 0, 0, 1, 0, 8, 0, 2, 0, 0, 3, 0, 0, 5, 0, 4, 0, 0, 0, 8, 0, 8, 0, 0, 0, 10, 0, 0, 0, 1, 0, 4, 0, 2, 8, 0, 4, 2, 1, 1, 4, 0, 0, 9, 5, 0, 8, 0, 0, 10, 0, 8, 7, 0, 5, 6, 0, 0, 0, 0, 0, 3, 0, 0, 9, 0, 0, 0, 0, 7, 7, 0, 0, 0, 0, 1, 0, 0, 0, 0, 6, 0, 4, 2, 1, 0, 6, 6, 0, 4, 4, 10, 0, 0, 0, 0, 0, 1, 0, 0, 5, 4, 4, 9, 8, 0, 0, 4, 4, 0, 4, 0, 0, 5, 0, 3, 0, 3, 1, 0, 1, 0, 0, 1, 0, 3, 0, 0, 0, 0, 0, 5, 4, 6, 6, 3, 0, 0, 5, 8, 5, 0, 6, 0, 0
 |9, 9, 9, 0, 1, 1, 9, 8, 0, 4, 2, 0, 0, 8, 0, 9, 8, 8, 0, 7, 0, 6, 0, 0, 0, 4, 3, 5, 4, 0, 0, 3, 3, 5, 4, 3, 10, 8, 0, 0, 9, 7, 0, 0, 0, 0, 0, 5, 0, 3, 1, 1, 1, 0, 0, 0, 0, 0, 0, 2, 0, 0, 0, 7, 7, 3, 7, 0, 4, 8, 0, 3, 0, 3, 0, 0, 0, 0, 0, 2, 0, 10, 10, 0, 6, 0, 0, 1, 0, 1, 0, 0, 0, 0, 0, 0, 0, 0, 0, 0, 0, 0, 4, 2, 2, 7, 4, 3, 8, 5, 0, 5, 0, 3, 6, 0, 3, 0, 4, 0, 0, 3, 3, 6, 4, 0, 10, 0, 0, 10, 9, 9, 9, 0, 3, 10, 0, 1, 0, 5, 0, 0, 5, 0, 10, 0, 0, 0, 10, 10, 0, 0, 0, 7, 6, 3, 7, 0, 4, 8, 0, 3, 0, 3, 0, 0, 0, 0, 0, 2, 0, 10, 10, 0, 6, 0, 0, 1, 0, 1, 4, 0, 4, 5, 5, 4, 8, 6, 0, 5, 3, 0, 7, 0, 0, 0, 0, 2, 4, 2, 2, 0, 0, 0, 0, 3, 0, 6, 2, 2, 0, 0, 0, 10, 7, 6, 0, 0, 7, 0, 7, 0, 0, 0, 2, 8, 7, 0, 0, 6, 4, 9, 0, 5, 3, 3, 1, 0, 0, 4, 0, 0, 0, 2, 0, 2, 0, 0, 0, 8, 7, 7, 2, 2, 1, 8, 0, 0, 8, 0, 0, 3, 0, 2, 8, 4, 2, 0, 5, 3, 4, 3, 3, 0, 0, 7, 6, 5, 3, 8, 0, 4, 0, 6, 0, 0, 0, 0, 0, 7, 0, 0, 0, 0, 0, 0, 0, 9, 6, 0
 |0, 0, 0, 8, 0, 0, 0, 0, 1, 0, 0, 5, 9, 0, 9, 0, 0, 0, 4, 0, 1, 0, 5, 2, 2, 0, 0, 0, 0, 3, 9, 0, 0, 0, 0, 0, 0, 0, 3, 4, 0, 0, 9, 8, 7, 5, 4, 0, 9, 0, 0, 0, 0, 9, 6, 6, 5, 6, 5, 0, 7, 6, 4, 0, 0, 0, 0, 5, 0, 0, 6, 0, 8, 0, 4, 10, 9, 8, 4, 0, 2, 0, 0, 2, 0, 4, 3, 0, 4, 0, 3, 2, 1, 5, 4, 3, 8, 7, 5, 7, 5, 3, 0, 0, 0, 0, 0, 0, 0, 0, 6, 0, 2, 0, 0, 6, 0, 9, 0, 7, 1, 0, 0, 0, 0, 1, 0, 6, 4, 0, 0, 0, 0, 3, 0, 0, 7, 0, 10, 0, 5, 10, 0, 9, 0, 5, 3, 3, 0, 0, 7, 6, 4, 0, 0, 0, 0, 5, 0, 0, 6, 0, 8, 0, 4, 10, 9, 8, 4, 0, 2, 0, 0, 2, 0, 4, 3, 0, 4, 0, 0, 4, 0, 0, 0, 0, 0, 0, 5, 0, 0, 1, 0, 2, 1, 10, 7, 0, 0, 0, 0, 8, 7, 5, 8, 0, 8, 0, 0, 0, 7, 6, 4, 0, 0, 0, 4, 3, 0, 5, 0, 2, 6, 4, 0, 0, 0, 1, 6, 0, 0, 0, 6, 0, 0, 0, 0, 3, 2, 0, 3, 3, 2, 0, 8, 0, 5, 4, 3, 0, 0, 0, 0, 0, 0, 0, 3, 2, 0, 3, 3, 0, 3, 0, 0, 0, 0, 10, 0, 0, 0, 0, 0, 9, 5, 0, 0, 0, 0, 0, 9, 0, 10, 0, 8, 5, 4, 2, 8, 0, 4, 9, 6, 6, 4, 3, 3, 0, 0, 2|];